-99 -99 000 000 -99 -99 000 000 -99 -99 -99 -99 000 000 000 -99 -99 -99 -99 000 000 000 000 000 000 000 000 -99 -99 -99 -99
000 -99 -99 -99 000 -99 000 000 -99 -99 -99 -99 -99 000 000 -99 -99 -99 -99 000 000 000 000 000 000 -99 000 -99 -99 -99 -99
000 000 000 000 000 -99 -99 000 000 -99 -99 -99 -99 -99 000 -99 -99 -99 -99 -99 -99 000 000 000 000 000 000 000 000 -99 -99
000 000 000 000 000 000 000 000 000 000 -99 -99 -99 -99 000 000 -99 -99 -99 -99 -99 000 000 000 000 000 000 000 -99 -99 -99
000 000 000 000 000 000 000 000 000 000 -99 -99 -99 000 000 000 -99 -99 -99 -99 -99 000 000 000 000 000 000 000 000 -99 -99
000 000 000 000 000 000 000 000 000 000 000 -99 -99 -99 000 000 000 000 -99 -99 -99 000 000 000 000 000 000 000 000 -99 -99
000 000 000 000 000 000 000 000 000 000 -99 -99 -99 -99 000 000 000 000 -99 -99 000 000 000 000 000 000 000 000 000 000 000
000 000 000 000 000 000 000 -99 000 000 -99 -99 -99 -99 -99 000 000 000 -99 -99 -99 000 000 -99 000 000 -99 -99 000 000 000
000 000 000 000 000 000 000 000 000 000 -99 -99 -99 -99 -99 -99 000 000 -99 -99 -99 000 000 -99 000 000 000 000 000 000 000
000 000 000 000 000 000 -99 000 000 -99 -99 -99 -99 -99 -99 -99 -99 000 000 -99 -99 000 000 000 -99 -99 000 000 000 000 000
000 000 000 000 000 000 000 000 000 000 000 000 -99 -99 -99 -99 -99 -99 000 -99 -99 -99 000 000 000 000 000 000 000 000 000
000 000 000 000 000 000 000 000 000 000 000 000 000 -99 -99 000 000 -99 000 000 -99 -99 000 000 000 000 000 000 000 000 000
000 000 000 000 000 -99 000 000 000 -99 000 000 000 -99 -99 000 000 000 000 000 -99 -99 000 000 000 000 000 000 000 000 000
000 000 000 000 000 000 000 -99 -99 -99 -99 000 -99 -99 -99 -99 -99 000 000 000 -99 000 000 000 000 -99 000 -99 000 000 000
000 000 000 000 000 000 -99 -99 -99 -99 -99 -99 -99 000 -99 -99 -99 -99 000 -99 -99 000 000 000 000 -99 000 -99 000 000 000
000 000 000 000 000 000 000 -99 -99 -99 -99 -99 -99 000 -99 -99 -99 -99 000 -99 -99 -99 000 000 000 -99 -99 -99 -99 000 000
000 -99 000 000 000 000 -99 -99 -99 -99 -99 -99 000 000 000 -99 -99 000 -99 -99 -99 -99 000 000 000 000 -99 000 000 000 000
000 000 000 000 -99 000 000 -99 -99 -99 -99 -99 -99 000 000 -99 -99 000 -99 -99 -99 -99 000 000 000 000 -99 000 000 000 000
000 000 000 000 -99 -99 -99 -99 000 000 -99 -99 -99 -99 000 -99 000 000 000 -99 -99 -99 -99 -99 -99 -99 -99 000 000 000 000
000 000 000 000 000 -99 -99 000 000 000 -99 -99 -99 -99 -99 -99 000 000 000 -99 -99 -99 -99 -99 -99 -99 000 000 000 000 000
-99 000 000 000 000 000 000 000 000 000 -99 -99 -99 -99 -99 -99 000 000 000 -99 -99 -99 -99 -99 -99 -99 -99 -99 -99 -99 -99
000 000 000 000 000 000 000 000 000 -99 -99 -99 -99 -99 -99 -99 -99 000 000 000 -99 -99 -99 -99 -99 -99 -99 -99 -99 -99 -99
-99 000 000 000 000 000 000 000 000 -99 -99 -99 -99 -99 -99 -99 -99 000 000 000 -99 -99 -99 -99 -99 -99 -99 -99 -99 -99 -99
000 000 000 000 000 000 000 000 000 000 -99 -99 -99 -99 000 000 000 000 000 000 -99 -99 000 -99 -99 -99 -99 -99 -99 -99 -99
-99 000 000 000 000 000 -99 000 000 000 000 -99 -99 -99 000 000 000 000 000 000 -99 -99 000 -99 -99 -99 -99 -99 -99 000 000
000 -99 000 000 000 000 000 000 000 000 -99 -99 -99 -99 000 000 000 000 000 000 -99 -99 000 -99 -99 -99 -99 -99 -99 -99 000
000 -99 -99 000 000 000 000 000 000 000 -99 -99 -99 -99 000 000 000 000 000 -99 -99 -99 000 -99 -99 -99 -99 -99 -99 -99 000
000 000 -99 000 000 000 000 000 000 -99 -99 -99 -99 -99 000 000 000 000 000 -99 -99 000 -99 -99 -99 -99 -99 -99 -99 003 002
000 000 -99 -99 -99 000 000 000 000 -99 -99 -99 -99 -99 000 000 000 000 000 -99 -99 000 -99 -99 -99 -99 -99 -99 -99 003 002
-99 000 000 -99 -99 000 000 000 -99 -99 -99 -99 -99 000 000 000 000 000 000 000 -99 000 -99 -99 -99 -99 -99 -99 -99 -99 -99
000 000 000 000 000 000 000 000 000 000 -99 -99 -99 000 000 000 000 000 000 000 -99 000 -99 -99 -99 -99 -99 -99 -99 -99 -99
000 000 000 000 000 000 000 000 000 -99 -99 -99 -99 000 000 000 000 000 000 000 000 000 -99 -99 000 000 -99 -99 -99 -99 -99
000 000 000 000 000 000 000 000 000 -99 -99 -99 -99 000 000 000 000 000 000 000 000 000 -99 000 000 000 -99 -99 000 -99 -99
-99 -99 -99 000 000 000 000 000 000 -99 -99 -99 000 000 000 000 000 000 000 -99 000 000 -99 000 000 000 000 000 000 000 000
-99 -99 -99 000 000 000 000 000 000 000 -99 -99 000 000 000 000 000 000 -99 000 000 -99 -99 000 000 000 000 000 000 000 000
-99 -99 -99 000 000 000 000 000 000 000 -99 -99 000 000 000 000 000 000 000 000 -99 -99 -99 000 000 000 000 000 000 000 000
000 -99 -99 -99 000 -99 -99 000 000 -99 -99 -99 000 000 -99 000 000 000 000 -99 -99 000 -99 -99 000 000 000 000 000 000 000
000 -99 -99 -99 000 -99 -99 -99 -99 -99 -99 -99 -99 -99 -99 000 000 000 000 -99 -99 000 -99 000 000 000 000 000 000 000 000
000 -99 -99 -99 000 -99 -99 -99 -99 -99 -99 -99 -99 -99 -99 000 000 000 -99 -99 000 000 000 000 000 -99 000 000 -99 -99 000
000 -99 -99 000 000 -99 -99 -99 -99 -99 -99 -99 -99 000 000 -99 -99 -99 -99 -99 000 000 000 000 000 000 -99 000 -99 -99 000
-99 -99 -99 000 000 -99 -99 -99 -99 -99 -99 -99 -99 000 000 -99 -99 -99 -99 -99 000 000 000 000 -99 -99 -99 -99 -99 -99 -99
000 000 -99 -99 -99 -99 -99 -99 -99 -99 -99 -99 000 000 000 -99 -99 -99 -99 000 000 000 000 000 -99 -99 -99 -99 -99 -99 000
-99 -99 -99 -99 -99 -99 -99 -99 -99 -99 -99 000 000 000 -99 000 -99 -99 -99 -99 000 000 000 -99 -99 000 -99 -99 -99 -99 000
-99 -99 -99 -99 -99 -99 -99 -99 -99 -99 -99 000 000 000 000 000 000 -99 -99 000 -99 000 -99 -99 -99 000 -99 -99 -99 -99 -99
-99 -99 -99 -99 -99 -99 -99 -99 -99 -99 -99 -99 000 -99 000 000 -99 -99 -99 -99 -99 000 -99 -99 -99 -99 000 000 -99 -99 -99
000 000 -99 -99 -99 -99 -99 -99 -99 -99 -99 -99 -99 -99 -99 -99 -99 -99 -99 -99 -99 -99 -99 -99 -99 000 000 000 -99 -99 -99
000 -99 -99 -99 -99 -99 -99 -99 -99 -99 -99 -99 -99 -99 -99 -99 -99 -99 -99 000 000 000 -99 -99 -99 000 000 -99 -99 -99 -99
000 -99 000 -99 -99 -99 -99 -99 -99 -99 -99 -99 -99 -99 -99 -99 -99 -99 -99 -99 -99 -99 -99 -99 000 000 000 -99 -99 -99 -99
-99 -99 000 -99 -99 -99 -99 -99 -99 -99 -99 -99 -99 -99 -99 -99 -99 -99 -99 -99 001 001 000 000 000 000 000 -99 -99 -99 -99
000 000 -99 -99 -99 -99 -99 -99 -99 -99 -99 -99 -99 -99 -99 -99 -99 -99 -99 -99 002 000 -99 000 000 000 -99 -99 -99 -99 -99
-99 -99 -99 -99 -99 -99 -99 -99 -99 -99 -99 -99 -99 -99 -99 -99 -99 -99 000 000 003 004 -99 -99 -99 000 -99 -99 -99 -99 -99
000 -99 -99 -99 -99 -99 -99 -99 -99 -99 -99 -99 -99 -99 -99 -99 -99 -99 -99 001 006 -99 -99 -99 000 -99 -99 -99 -99 -99 -99
000 -99 -99 -99 -99 -99 -99 -99 -99 -99 -99 -99 -99 -99 -99 -99 -99 000 000 000 002 -99 -99 -99 -99 -99 -99 -99 -99 -99 -99
000 -99 -99 -99 -99 -99 -99 -99 -99 -99 -99 -99 -99 -99 -99 -99 000 000 000 -99 -99 -99 -99 -99 -99 -99 -99 -99 -99 -99 -99
-99 -99 -99 -99 -99 -99 -99 -99 -99 -99 -99 -99 -99 -99 -99 000 000 -99 -99 -99 -99 -99 -99 -99 -99 -99 -99 -99 -99 -99 -99
